p edge 100 1050
v 1 3
v 2 3
v 3 3
v 4 2
v 5 2
v 6 1
v 7 2
v 8 2
v 9 2
v 10 3
v 11 3
v 12 1
v 13 1
v 14 2
v 15 1
v 16 3
v 17 2
v 18 1
v 19 2
v 20 2
v 21 2
v 22 3
v 23 1
v 24 3
v 25 1
v 26 3
v 27 2
v 28 1
v 29 3
v 30 2
v 31 3
v 32 3
v 33 2
v 34 2
v 35 2
v 36 3
v 37 3
v 38 3
v 39 1
v 40 2
v 41 3
v 42 1
v 43 2
v 44 3
v 45 2
v 46 3
v 47 3
v 48 3
v 49 3
v 50 1
v 51 1
v 52 2
v 53 1
v 54 2
v 55 2
v 56 1
v 57 1
v 58 3
v 59 1
v 60 1
v 61 1
v 62 1
v 63 1
v 64 3
v 65 2
v 66 2
v 67 2
v 68 2
v 69 2
v 70 3
v 71 3
v 72 1
v 73 3
v 74 2
v 75 1
v 76 2
v 77 1
v 78 1
v 79 2
v 80 3
v 81 1
v 82 2
v 83 1
v 84 1
v 85 1
v 86 2
v 87 2
v 88 2
v 89 1
v 90 3
v 91 3
v 92 2
v 93 3
v 94 3
v 95 1
v 96 1
v 97 1
v 98 3
v 99 2
v 100 2
e 1 10
e 1 12
e 1 13
e 1 15
e 1 25
e 1 28
e 1 33
e 1 37
e 1 40
e 1 46
e 1 58
e 1 60
e 1 62
e 1 68
e 1 72
e 1 74
e 1 86
e 1 91
e 1 93
e 1 94
e 1 98
e 2 11
e 2 12
e 2 16
e 2 17
e 2 18
e 2 20
e 2 21
e 2 22
e 2 25
e 2 26
e 2 32
e 2 34
e 2 36
e 2 43
e 2 45
e 2 49
e 2 50
e 2 53
e 2 59
e 2 60
e 2 61
e 2 62
e 2 64
e 2 69
e 2 71
e 2 72
e 2 73
e 2 75
e 2 79
e 2 81
e 2 82
e 2 84
e 2 85
e 2 87
e 2 92
e 2 96
e 2 98
e 3 6
e 3 14
e 3 17
e 3 18
e 3 26
e 3 29
e 3 31
e 3 38
e 3 44
e 3 47
e 3 55
e 3 64
e 3 67
e 3 75
e 3 77
e 3 89
e 3 90
e 3 100
e 4 14
e 4 24
e 4 27
e 4 29
e 4 30
e 4 41
e 4 51
e 4 70
e 4 78
e 4 80
e 4 88
e 4 97
e 5 16
e 5 19
e 5 32
e 5 35
e 5 42
e 5 45
e 5 54
e 5 57
e 5 76
e 5 81
e 5 82
e 5 95
e 6 8
e 6 9
e 6 18
e 6 34
e 6 38
e 6 39
e 6 43
e 6 44
e 6 48
e 6 55
e 6 56
e 6 63
e 6 64
e 6 65
e 6 66
e 6 77
e 6 83
e 6 84
e 6 96
e 6 100
e 7 14
e 7 29
e 7 47
e 7 52
e 7 67
e 7 89
e 7 99
e 8 9
e 8 11
e 8 18
e 8 20
e 8 34
e 8 38
e 8 39
e 8 43
e 8 48
e 8 55
e 8 56
e 8 64
e 8 65
e 8 66
e 8 84
e 8 85
e 8 92
e 8 96
e 9 38
e 9 39
e 9 48
e 9 56
e 9 63
e 9 65
e 9 66
e 9 77
e 9 83
e 9 100
e 10 25
e 10 28
e 10 37
e 10 40
e 10 45
e 10 58
e 10 60
e 10 62
e 10 68
e 10 72
e 10 94
e 10 95
e 11 20
e 11 21
e 11 22
e 11 32
e 11 34
e 11 39
e 11 42
e 11 43
e 11 59
e 11 65
e 11 69
e 11 71
e 11 76
e 11 79
e 11 81
e 11 82
e 11 84
e 11 85
e 11 92
e 11 96
e 12 16
e 12 17
e 12 22
e 12 25
e 12 26
e 12 36
e 12 37
e 12 40
e 12 46
e 12 49
e 12 50
e 12 53
e 12 58
e 12 60
e 12 61
e 12 62
e 12 68
e 12 71
e 12 72
e 12 73
e 12 74
e 12 75
e 12 87
e 12 94
e 12 98
e 13 15
e 13 23
e 13 24
e 13 27
e 13 28
e 13 30
e 13 33
e 13 37
e 13 40
e 13 46
e 13 58
e 13 74
e 13 78
e 13 80
e 13 86
e 13 88
e 13 91
e 13 93
e 14 17
e 14 26
e 14 27
e 14 29
e 14 30
e 14 31
e 14 41
e 14 51
e 14 52
e 14 53
e 14 67
e 14 75
e 14 88
e 14 89
e 14 90
e 14 97
e 15 23
e 15 24
e 15 28
e 15 33
e 15 37
e 15 40
e 15 46
e 15 58
e 15 72
e 15 74
e 15 78
e 15 80
e 15 86
e 15 88
e 15 91
e 15 93
e 16 19
e 16 21
e 16 22
e 16 25
e 16 32
e 16 35
e 16 36
e 16 42
e 16 45
e 16 54
e 16 57
e 16 59
e 16 60
e 16 61
e 16 62
e 16 68
e 16 69
e 16 72
e 16 73
e 16 76
e 16 81
e 16 82
e 16 85
e 16 94
e 16 95
e 17 18
e 17 26
e 17 31
e 17 34
e 17 36
e 17 38
e 17 41
e 17 43
e 17 49
e 17 50
e 17 51
e 17 53
e 17 55
e 17 61
e 17 64
e 17 71
e 17 73
e 17 75
e 17 84
e 17 87
e 17 90
e 17 97
e 17 98
e 18 26
e 18 31
e 18 34
e 18 38
e 18 43
e 18 44
e 18 49
e 18 50
e 18 53
e 18 55
e 18 56
e 18 61
e 18 64
e 18 65
e 18 71
e 18 73
e 18 75
e 18 77
e 18 84
e 18 87
e 18 90
e 18 92
e 18 96
e 18 100
e 19 21
e 19 22
e 19 25
e 19 32
e 19 35
e 19 42
e 19 45
e 19 54
e 19 57
e 19 60
e 19 62
e 19 68
e 19 69
e 19 76
e 19 81
e 19 82
e 19 95
e 20 21
e 20 22
e 20 32
e 20 39
e 20 42
e 20 54
e 20 57
e 20 59
e 20 65
e 20 69
e 20 76
e 20 79
e 20 81
e 20 82
e 20 84
e 20 85
e 20 92
e 20 96
e 21 22
e 21 32
e 21 36
e 21 42
e 21 45
e 21 50
e 21 54
e 21 57
e 21 59
e 21 60
e 21 61
e 21 62
e 21 69
e 21 71
e 21 73
e 21 76
e 21 79
e 21 81
e 21 82
e 21 84
e 21 85
e 21 87
e 21 92
e 21 96
e 22 25
e 22 32
e 22 36
e 22 42
e 22 45
e 22 49
e 22 50
e 22 54
e 22 59
e 22 60
e 22 61
e 22 62
e 22 69
e 22 71
e 22 73
e 22 79
e 22 81
e 22 82
e 22 84
e 22 85
e 22 87
e 22 92
e 22 95
e 22 96
e 22 98
e 23 28
e 23 33
e 23 80
e 23 86
e 23 91
e 23 93
e 24 27
e 24 30
e 24 33
e 24 41
e 24 46
e 24 51
e 24 58
e 24 70
e 24 74
e 24 78
e 24 80
e 24 86
e 24 88
e 24 91
e 24 93
e 24 97
e 25 32
e 25 36
e 25 37
e 25 45
e 25 60
e 25 62
e 25 68
e 25 72
e 25 81
e 25 94
e 25 95
e 26 31
e 26 34
e 26 36
e 26 38
e 26 41
e 26 43
e 26 49
e 26 50
e 26 53
e 26 55
e 26 61
e 26 64
e 26 71
e 26 73
e 26 75
e 26 84
e 26 87
e 26 90
e 26 97
e 26 98
e 27 29
e 27 30
e 27 31
e 27 41
e 27 46
e 27 51
e 27 58
e 27 70
e 27 74
e 27 78
e 27 80
e 27 86
e 27 88
e 27 91
e 27 97
e 28 33
e 28 37
e 28 40
e 28 46
e 28 58
e 28 72
e 28 74
e 28 86
e 28 91
e 28 93
e 28 94
e 29 31
e 29 41
e 29 51
e 29 52
e 29 67
e 29 89
e 29 90
e 29 97
e 29 99
e 30 31
e 30 33
e 30 41
e 30 46
e 30 51
e 30 58
e 30 70
e 30 74
e 30 78
e 30 80
e 30 86
e 30 88
e 30 91
e 30 97
e 31 41
e 31 49
e 31 50
e 31 51
e 31 52
e 31 53
e 31 64
e 31 75
e 31 87
e 31 88
e 31 90
e 31 97
e 32 35
e 32 36
e 32 42
e 32 45
e 32 54
e 32 57
e 32 59
e 32 60
e 32 62
e 32 68
e 32 69
e 32 71
e 32 76
e 32 79
e 32 81
e 32 82
e 32 85
e 32 95
e 33 37
e 33 40
e 33 46
e 33 58
e 33 72
e 33 74
e 33 78
e 33 80
e 33 86
e 33 88
e 33 91
e 33 93
e 34 38
e 34 39
e 34 43
e 34 44
e 34 50
e 34 55
e 34 56
e 34 61
e 34 64
e 34 65
e 34 66
e 34 71
e 34 73
e 34 75
e 34 77
e 34 84
e 34 85
e 34 87
e 34 90
e 34 92
e 34 96
e 34 100
e 35 42
e 35 45
e 35 54
e 35 57
e 35 59
e 35 69
e 35 76
e 35 81
e 35 82
e 36 37
e 36 45
e 36 49
e 36 50
e 36 53
e 36 59
e 36 60
e 36 61
e 36 62
e 36 64
e 36 69
e 36 71
e 36 72
e 36 73
e 36 75
e 36 81
e 36 82
e 36 84
e 36 85
e 36 87
e 36 92
e 36 96
e 36 98
e 37 40
e 37 46
e 37 49
e 37 50
e 37 53
e 37 58
e 37 60
e 37 61
e 37 62
e 37 72
e 37 73
e 37 74
e 37 86
e 37 87
e 37 91
e 37 94
e 37 98
e 38 39
e 38 43
e 38 44
e 38 48
e 38 50
e 38 55
e 38 56
e 38 64
e 38 65
e 38 66
e 38 71
e 38 75
e 38 77
e 38 83
e 38 84
e 38 87
e 38 90
e 38 92
e 38 96
e 38 100
e 39 43
e 39 55
e 39 56
e 39 59
e 39 64
e 39 65
e 39 66
e 39 71
e 39 79
e 39 84
e 39 85
e 39 92
e 39 96
e 40 46
e 40 49
e 40 53
e 40 58
e 40 62
e 40 72
e 40 74
e 40 78
e 40 86
e 40 91
e 40 93
e 40 94
e 40 98
e 41 46
e 41 49
e 41 51
e 41 53
e 41 58
e 41 70
e 41 74
e 41 78
e 41 86
e 41 88
e 41 90
e 41 91
e 41 97
e 41 98
e 42 54
e 42 57
e 42 59
e 42 69
e 42 76
e 42 79
e 42 81
e 42 82
e 42 85
e 43 44
e 43 50
e 43 55
e 43 56
e 43 61
e 43 64
e 43 65
e 43 66
e 43 71
e 43 73
e 43 75
e 43 77
e 43 84
e 43 87
e 43 90
e 43 92
e 43 96
e 43 100
e 44 47
e 44 48
e 44 55
e 44 56
e 44 64
e 44 66
e 44 75
e 44 77
e 44 83
e 44 84
e 44 90
e 44 100
e 45 54
e 45 57
e 45 60
e 45 62
e 45 68
e 45 72
e 45 81
e 45 82
e 45 94
e 45 95
e 46 49
e 46 50
e 46 51
e 46 53
e 46 58
e 46 61
e 46 72
e 46 73
e 46 74
e 46 78
e 46 80
e 46 86
e 46 87
e 46 88
e 46 91
e 46 93
e 46 94
e 46 97
e 46 98
e 47 67
e 47 77
e 47 89
e 47 100
e 48 55
e 48 56
e 48 63
e 48 66
e 48 77
e 48 83
e 48 100
e 49 50
e 49 53
e 49 58
e 49 61
e 49 64
e 49 71
e 49 72
e 49 73
e 49 74
e 49 75
e 49 87
e 49 90
e 49 97
e 49 98
e 50 53
e 50 55
e 50 61
e 50 64
e 50 71
e 50 73
e 50 75
e 50 84
e 50 87
e 50 90
e 50 96
e 50 97
e 50 98
e 51 52
e 51 53
e 51 70
e 51 74
e 51 78
e 51 88
e 51 97
e 52 67
e 52 89
e 52 97
e 52 99
e 53 55
e 53 58
e 53 61
e 53 64
e 53 71
e 53 72
e 53 73
e 53 74
e 53 75
e 53 84
e 53 87
e 53 90
e 53 97
e 53 98
e 54 57
e 54 59
e 54 69
e 54 76
e 54 79
e 54 81
e 54 82
e 54 85
e 55 56
e 55 61
e 55 64
e 55 65
e 55 66
e 55 71
e 55 73
e 55 75
e 55 77
e 55 84
e 55 87
e 55 90
e 55 92
e 55 96
e 55 100
e 56 63
e 56 64
e 56 65
e 56 66
e 56 77
e 56 83
e 56 84
e 56 92
e 56 96
e 56 100
e 57 59
e 57 69
e 57 76
e 57 79
e 57 81
e 57 82
e 57 85
e 58 72
e 58 74
e 58 78
e 58 80
e 58 86
e 58 88
e 58 91
e 58 93
e 58 94
e 58 98
e 59 65
e 59 69
e 59 71
e 59 76
e 59 79
e 59 81
e 59 82
e 59 84
e 59 85
e 59 92
e 59 96
e 60 61
e 60 62
e 60 68
e 60 72
e 60 73
e 60 81
e 60 82
e 60 94
e 60 95
e 60 98
e 61 62
e 61 64
e 61 71
e 61 72
e 61 73
e 61 75
e 61 84
e 61 87
e 61 90
e 61 92
e 61 96
e 61 98
e 62 68
e 62 72
e 62 73
e 62 81
e 62 82
e 62 94
e 62 95
e 62 98
e 63 66
e 63 77
e 63 83
e 64 65
e 64 71
e 64 73
e 64 75
e 64 77
e 64 84
e 64 87
e 64 90
e 64 92
e 64 96
e 64 100
e 65 66
e 65 69
e 65 71
e 65 79
e 65 84
e 65 85
e 65 92
e 65 96
e 66 77
e 66 83
e 66 100
e 67 89
e 67 99
e 68 72
e 68 81
e 68 94
e 68 95
e 69 71
e 69 76
e 69 79
e 69 81
e 69 82
e 69 84
e 69 85
e 69 92
e 69 96
e 70 78
e 70 80
e 70 86
e 70 88
e 70 97
e 71 73
e 71 75
e 71 84
e 71 85
e 71 87
e 71 90
e 71 92
e 71 96
e 71 98
e 72 73
e 72 74
e 72 86
e 72 91
e 72 94
e 72 95
e 72 98
e 73 75
e 73 84
e 73 87
e 73 90
e 73 96
e 73 98
e 74 78
e 74 80
e 74 86
e 74 88
e 74 91
e 74 93
e 74 97
e 74 98
e 75 84
e 75 87
e 75 90
e 75 92
e 75 96
e 75 97
e 75 98
e 76 79
e 76 81
e 76 82
e 76 85
e 77 83
e 77 100
e 78 80
e 78 86
e 78 88
e 78 91
e 78 93
e 78 97
e 79 81
e 79 82
e 79 84
e 79 85
e 79 92
e 79 96
e 80 86
e 80 88
e 80 91
e 80 93
e 81 82
e 81 85
e 81 95
e 82 85
e 83 100
e 84 85
e 84 87
e 84 90
e 84 92
e 84 96
e 85 92
e 85 96
e 86 88
e 86 91
e 86 93
e 86 98
e 87 90
e 87 96
e 87 97
e 87 98
e 88 91
e 88 93
e 88 97
e 89 99
e 90 97
e 90 100
e 91 93
e 91 98
e 92 96
e 94 95
e 94 98
